(set-logic ALL)
(declare-fun var0 () String)
(assert (str.in_re var0 (re.++ (re.* (re.+ (str.to_re "0"))) (re.++ (re.+ (re.union (str.to_re "111") (str.to_re "222"))) (re.++ (re.+ (re.+ (str.to_re "33"))) (re.++ (re.* (re.union (str.to_re "4") (str.to_re "5"))) (re.++ (re.+ (re.* (str.to_re "666"))) (re.++ (re.* (re.* (str.to_re "77"))) (re.++ (re.+ (re.union (str.to_re "8") (str.to_re "9"))) (re.++ (re.union (re.+ (str.to_re "aa")) (re.+ (str.to_re "bb"))) (re.++ (re.union (re.union (str.to_re "cc") (str.to_re "d")) (re.union (str.to_re "eee") (str.to_re "fff"))) (re.++ (re.+ (re.+ (str.to_re "gg"))) (re.++ (re.union (re.union (str.to_re "hh") (str.to_re "ii")) (re.union (str.to_re "jjj") (str.to_re "kkk"))) (re.++ (re.+ (re.+ (str.to_re "lll"))) (re.++ (re.* (re.* (str.to_re "m"))) (re.++ (re.* (re.+ (str.to_re "n"))) (re.++ (re.+ (re.+ (str.to_re "oo"))) (re.* (re.* (str.to_re "ppp"))))))))))))))))))))
(assert (not (str.in_re var0 (re.++ (re.* (re.* (str.to_re "0"))) (re.++ (re.* (re.+ (str.to_re "111"))) (re.++ (re.* (re.+ (str.to_re "2"))) (re.++ (re.* (re.* (str.to_re "333"))) (re.++ (re.+ (re.+ (str.to_re "444"))) (re.++ (re.* (re.* (str.to_re "55"))) (re.++ (re.union (re.* (str.to_re "66")) (re.* (str.to_re "777"))) (re.++ (re.* (re.union (str.to_re "888") (str.to_re "999"))) (re.++ (re.union (re.* (str.to_re "aa")) (re.* (str.to_re "bbb"))) (re.++ (re.* (re.* (str.to_re "cc"))) (re.++ (re.union (re.union (str.to_re "dd") (str.to_re "eee")) (re.union (str.to_re "ff") (str.to_re "gg"))) (re.++ (re.+ (re.+ (str.to_re "h"))) (re.++ (re.union (re.union (str.to_re "i") (str.to_re "j")) (re.union (str.to_re "kkk") (str.to_re "lll"))) (re.++ (re.+ (re.union (str.to_re "mmm") (str.to_re "nn"))) (re.++ (re.union (re.+ (str.to_re "ooo")) (re.+ (str.to_re "p"))) (re.union (re.* (str.to_re "q")) (re.* (str.to_re "rrr")))))))))))))))))))))
(check-sat)